WARNING: for repeatability, setting FPU to use double precision
============================[ Problem Statistics ]=============================
|                                                                             |
|  Number of variables:          1002                                         |
|  Number of clauses:           38763                                         |
|  Parse time:                   0.01 s                                       |
|                                                                             |
c ============================[ Search Statistics ]==============================
c | Conflicts |          ORIGINAL         |          LEARNT          | Progress |
c |           |    Vars  Clauses Literals |    Limit  Clauses Lit/Cl |          |
c ===============================================================================
c Switched to VSIDS.
c Switched to LRB.
c Switched to VSIDS.
c Switched to LRB.
c Switched to VSIDS.
c Switched to LRB.
c Switched to VSIDS.
c Switched to LRB.
c Switched to VSIDS.
c Switched to LRB.
c Switched to VSIDS.
c Switched to LRB.
c Switched to VSIDS.
c Switched to LRB.
c Switched to VSIDS.
c Switched to LRB.
c Switched to VSIDS.
c Switched to LRB.
c Switched to VSIDS.
c Switched to LRB.
c Switched to VSIDS.
c Switched to LRB.
c Switched to VSIDS.
c Switched to LRB.
c Switched to VSIDS.
c Switched to LRB.
c Switched to VSIDS.
c ===============================================================================
restarts                  : 29942
conflicts                 : 16855831       (4767 /sec)
decisions                 : 22205716       (0.00 % random) (6280 /sec)
propagations              : 3787012667     (1070923 /sec)
conflict literals         : 1218937464     (37.51 % deleted)

conflicts w/ DIP found    : 10017119       (59.43 % of conflicts)
conflicts w/ dangerous DIP: 0              (0.00 % of conflicts)
conflicts w/ DIP-learning : 58908          (0.35 % of conflicts)
decisions on ext vars     : 1190           (0.01 % of decisions)
total ext vars            : 5472        
tried delete ext vars     : 0           
deleted ext vars          : 0           
max ext vars              : 5472        

Memory used               : 231.00 MB
CPU time                  : 3536.21 s
DIP computation time      : 93.8694 s (2.65 % of total time)
ER_sel time               : 19.3739 s
ER_add time               : 0.020529 s
ER_delC time              : 0 s
ER_delV time              : 0 s
ER_sub time               : 22.3516 s
ER_stat time              : 0 s

INDETERMINATE
